(set-info :smt-lib-version 2.6)
(set-logic UFLRA)
; Problem:
; 
;     lim(f_1 x) = l_1
;     ...
;     lim(f_n x) = l_n
;     =================
;     lim(k_1 f_{i_1}(x) + ... + k_m f_{i_m}(x)) = k1 l_{i_1} ... k_m  l_{i_m}
; 
; with n = 2
;      m = 32
;      k_i in Q
;      i_j in {1..n}

(declare-fun f0 (Real) Real)
(declare-fun f1 (Real) Real)
(declare-const l0 Real)
(declare-const l1 Real)
(declare-const a Real)
; Axiom 0
(assert ; lim[x -> a](f0 x) = l0
        ;
        ; forall epsilon > 0
        (forall ((epsilon Real)) (=> (< 0.0 epsilon)
          ;
          ; exists delta > 0
          (exists ( (delta Real) ) (and (< 0.0 delta)
            (forall ((x Real)) (=> ;
                                          ; a != x
                                     (and (not (= x a))
                                          ; | x - a | < delta
                                          (< (ite (>= (- x a) 0.0) (- x a) (- (- x a))) delta))
                                     ;
                                     ; | (f0 x) - l0 | < epsilon
                                     (< (ite (>= (- (f0 x) l0) 0.0) (- (f0 x) l0) (- (- (f0 x) l0))) epsilon)
            ))
          ))
        )))

; Axiom 1
(assert ; lim[x -> a](f1 x) = l1
        ;
        ; forall epsilon > 0
        (forall ((epsilon Real)) (=> (< 0.0 epsilon)
          ;
          ; exists delta > 0
          (exists ( (delta Real) ) (and (< 0.0 delta)
            (forall ((x Real)) (=> ;
                                          ; a != x
                                     (and (not (= x a))
                                          ; | x - a | < delta
                                          (< (ite (>= (- x a) 0.0) (- x a) (- (- x a))) delta))
                                     ;
                                     ; | (f1 x) - l1 | < epsilon
                                     (< (ite (>= (- (f1 x) l1) 0.0) (- (f1 x) l1) (- (- (f1 x) l1))) epsilon)
            ))
          ))
        )))


; Conclusion
(assert (not ; lim[x -> a](+ (* (/ 60.0 95.0) (f1 x)) (* (- (/ 66.0 61.0)) (f0 x)) (* (- (/ 35.0 24.0)) (f0 x)) (* (- (/ 98.0 36.0)) (f1 x)) (* (- (/ 69.0 12.0)) (f0 x)) (* (/ 71.0 46.0) (f1 x)) (* (- (/ 53.0 70.0)) (f0 x)) (* (/ 45.0 24.0) (f1 x)) (* (- (/ 100.0 80.0)) (f0 x)) (* (/ 16.0 13.0) (f0 x)) (* (- (/ 33.0 33.0)) (f1 x)) (* (/ 44.0 81.0) (f1 x)) (* (- (/ 91.0 4.0)) (f1 x)) (* (- 80.0) (f0 x)) (* (- 89.0) (f1 x)) (* (- (/ 18.0 40.0)) (f0 x)) (* (- (/ 23.0 48.0)) (f0 x)) (* (- (/ 6.0 9.0)) (f1 x)) (* (- (/ 35.0 34.0)) (f0 x)) (* (/ 51.0 49.0) (f0 x)) (* (- (/ 24.0 82.0)) (f0 x)) (* (/ 50.0 68.0) (f1 x)) (* (/ 73.0 67.0) (f0 x)) (* (/ 61.0 38.0) (f1 x)) (* (/ 98.0 70.0) (f1 x)) (* (- (/ 67.0 38.0)) (f0 x)) (* (- (/ 98.0 68.0)) (f0 x)) (* (- (/ 16.0 92.0)) (f1 x)) (* (/ 96.0 55.0) (f1 x)) (* (/ 82.0 5.0) (f0 x)) (* (/ 65.0 86.0) (f0 x)) (* (/ 13.0 8.0) (f0 x))) = (+ (* (/ 60.0 95.0) l1) (* (- (/ 66.0 61.0)) l0) (* (- (/ 35.0 24.0)) l0) (* (- (/ 98.0 36.0)) l1) (* (- (/ 69.0 12.0)) l0) (* (/ 71.0 46.0) l1) (* (- (/ 53.0 70.0)) l0) (* (/ 45.0 24.0) l1) (* (- (/ 100.0 80.0)) l0) (* (/ 16.0 13.0) l0) (* (- (/ 33.0 33.0)) l1) (* (/ 44.0 81.0) l1) (* (- (/ 91.0 4.0)) l1) (* (- 80.0) l0) (* (- 89.0) l1) (* (- (/ 18.0 40.0)) l0) (* (- (/ 23.0 48.0)) l0) (* (- (/ 6.0 9.0)) l1) (* (- (/ 35.0 34.0)) l0) (* (/ 51.0 49.0) l0) (* (- (/ 24.0 82.0)) l0) (* (/ 50.0 68.0) l1) (* (/ 73.0 67.0) l0) (* (/ 61.0 38.0) l1) (* (/ 98.0 70.0) l1) (* (- (/ 67.0 38.0)) l0) (* (- (/ 98.0 68.0)) l0) (* (- (/ 16.0 92.0)) l1) (* (/ 96.0 55.0) l1) (* (/ 82.0 5.0) l0) (* (/ 65.0 86.0) l0) (* (/ 13.0 8.0) l0))
             ;
             ; forall epsilon > 0
             (forall ((epsilon Real)) (=> (< 0.0 epsilon)
               ;
               ; exists delta > 0
               (exists ( (delta Real) ) (and (< 0.0 delta)
                 (forall ((x Real)) (=> ;
                                               ; a != x
                                          (and (not (= x a))
                                               ; | x - a | < delta
                                               (< (ite (>= (- x a) 0.0) (- x a) (- (- x a))) delta))
                                          ;
                                          ; | (+ (* (/ 60.0 95.0) (f1 x)) (* (- (/ 66.0 61.0)) (f0 x)) (* (- (/ 35.0 24.0)) (f0 x)) (* (- (/ 98.0 36.0)) (f1 x)) (* (- (/ 69.0 12.0)) (f0 x)) (* (/ 71.0 46.0) (f1 x)) (* (- (/ 53.0 70.0)) (f0 x)) (* (/ 45.0 24.0) (f1 x)) (* (- (/ 100.0 80.0)) (f0 x)) (* (/ 16.0 13.0) (f0 x)) (* (- (/ 33.0 33.0)) (f1 x)) (* (/ 44.0 81.0) (f1 x)) (* (- (/ 91.0 4.0)) (f1 x)) (* (- 80.0) (f0 x)) (* (- 89.0) (f1 x)) (* (- (/ 18.0 40.0)) (f0 x)) (* (- (/ 23.0 48.0)) (f0 x)) (* (- (/ 6.0 9.0)) (f1 x)) (* (- (/ 35.0 34.0)) (f0 x)) (* (/ 51.0 49.0) (f0 x)) (* (- (/ 24.0 82.0)) (f0 x)) (* (/ 50.0 68.0) (f1 x)) (* (/ 73.0 67.0) (f0 x)) (* (/ 61.0 38.0) (f1 x)) (* (/ 98.0 70.0) (f1 x)) (* (- (/ 67.0 38.0)) (f0 x)) (* (- (/ 98.0 68.0)) (f0 x)) (* (- (/ 16.0 92.0)) (f1 x)) (* (/ 96.0 55.0) (f1 x)) (* (/ 82.0 5.0) (f0 x)) (* (/ 65.0 86.0) (f0 x)) (* (/ 13.0 8.0) (f0 x))) - (+ (* (/ 60.0 95.0) l1) (* (- (/ 66.0 61.0)) l0) (* (- (/ 35.0 24.0)) l0) (* (- (/ 98.0 36.0)) l1) (* (- (/ 69.0 12.0)) l0) (* (/ 71.0 46.0) l1) (* (- (/ 53.0 70.0)) l0) (* (/ 45.0 24.0) l1) (* (- (/ 100.0 80.0)) l0) (* (/ 16.0 13.0) l0) (* (- (/ 33.0 33.0)) l1) (* (/ 44.0 81.0) l1) (* (- (/ 91.0 4.0)) l1) (* (- 80.0) l0) (* (- 89.0) l1) (* (- (/ 18.0 40.0)) l0) (* (- (/ 23.0 48.0)) l0) (* (- (/ 6.0 9.0)) l1) (* (- (/ 35.0 34.0)) l0) (* (/ 51.0 49.0) l0) (* (- (/ 24.0 82.0)) l0) (* (/ 50.0 68.0) l1) (* (/ 73.0 67.0) l0) (* (/ 61.0 38.0) l1) (* (/ 98.0 70.0) l1) (* (- (/ 67.0 38.0)) l0) (* (- (/ 98.0 68.0)) l0) (* (- (/ 16.0 92.0)) l1) (* (/ 96.0 55.0) l1) (* (/ 82.0 5.0) l0) (* (/ 65.0 86.0) l0) (* (/ 13.0 8.0) l0)) | < epsilon
                                          (< (ite (>= (- (+ (* (/ 60.0 95.0) (f1 x)) (* (- (/ 66.0 61.0)) (f0 x)) (* (- (/ 35.0 24.0)) (f0 x)) (* (- (/ 98.0 36.0)) (f1 x)) (* (- (/ 69.0 12.0)) (f0 x)) (* (/ 71.0 46.0) (f1 x)) (* (- (/ 53.0 70.0)) (f0 x)) (* (/ 45.0 24.0) (f1 x)) (* (- (/ 100.0 80.0)) (f0 x)) (* (/ 16.0 13.0) (f0 x)) (* (- (/ 33.0 33.0)) (f1 x)) (* (/ 44.0 81.0) (f1 x)) (* (- (/ 91.0 4.0)) (f1 x)) (* (- 80.0) (f0 x)) (* (- 89.0) (f1 x)) (* (- (/ 18.0 40.0)) (f0 x)) (* (- (/ 23.0 48.0)) (f0 x)) (* (- (/ 6.0 9.0)) (f1 x)) (* (- (/ 35.0 34.0)) (f0 x)) (* (/ 51.0 49.0) (f0 x)) (* (- (/ 24.0 82.0)) (f0 x)) (* (/ 50.0 68.0) (f1 x)) (* (/ 73.0 67.0) (f0 x)) (* (/ 61.0 38.0) (f1 x)) (* (/ 98.0 70.0) (f1 x)) (* (- (/ 67.0 38.0)) (f0 x)) (* (- (/ 98.0 68.0)) (f0 x)) (* (- (/ 16.0 92.0)) (f1 x)) (* (/ 96.0 55.0) (f1 x)) (* (/ 82.0 5.0) (f0 x)) (* (/ 65.0 86.0) (f0 x)) (* (/ 13.0 8.0) (f0 x))) (+ (* (/ 60.0 95.0) l1) (* (- (/ 66.0 61.0)) l0) (* (- (/ 35.0 24.0)) l0) (* (- (/ 98.0 36.0)) l1) (* (- (/ 69.0 12.0)) l0) (* (/ 71.0 46.0) l1) (* (- (/ 53.0 70.0)) l0) (* (/ 45.0 24.0) l1) (* (- (/ 100.0 80.0)) l0) (* (/ 16.0 13.0) l0) (* (- (/ 33.0 33.0)) l1) (* (/ 44.0 81.0) l1) (* (- (/ 91.0 4.0)) l1) (* (- 80.0) l0) (* (- 89.0) l1) (* (- (/ 18.0 40.0)) l0) (* (- (/ 23.0 48.0)) l0) (* (- (/ 6.0 9.0)) l1) (* (- (/ 35.0 34.0)) l0) (* (/ 51.0 49.0) l0) (* (- (/ 24.0 82.0)) l0) (* (/ 50.0 68.0) l1) (* (/ 73.0 67.0) l0) (* (/ 61.0 38.0) l1) (* (/ 98.0 70.0) l1) (* (- (/ 67.0 38.0)) l0) (* (- (/ 98.0 68.0)) l0) (* (- (/ 16.0 92.0)) l1) (* (/ 96.0 55.0) l1) (* (/ 82.0 5.0) l0) (* (/ 65.0 86.0) l0) (* (/ 13.0 8.0) l0))) 0.0) (- (+ (* (/ 60.0 95.0) (f1 x)) (* (- (/ 66.0 61.0)) (f0 x)) (* (- (/ 35.0 24.0)) (f0 x)) (* (- (/ 98.0 36.0)) (f1 x)) (* (- (/ 69.0 12.0)) (f0 x)) (* (/ 71.0 46.0) (f1 x)) (* (- (/ 53.0 70.0)) (f0 x)) (* (/ 45.0 24.0) (f1 x)) (* (- (/ 100.0 80.0)) (f0 x)) (* (/ 16.0 13.0) (f0 x)) (* (- (/ 33.0 33.0)) (f1 x)) (* (/ 44.0 81.0) (f1 x)) (* (- (/ 91.0 4.0)) (f1 x)) (* (- 80.0) (f0 x)) (* (- 89.0) (f1 x)) (* (- (/ 18.0 40.0)) (f0 x)) (* (- (/ 23.0 48.0)) (f0 x)) (* (- (/ 6.0 9.0)) (f1 x)) (* (- (/ 35.0 34.0)) (f0 x)) (* (/ 51.0 49.0) (f0 x)) (* (- (/ 24.0 82.0)) (f0 x)) (* (/ 50.0 68.0) (f1 x)) (* (/ 73.0 67.0) (f0 x)) (* (/ 61.0 38.0) (f1 x)) (* (/ 98.0 70.0) (f1 x)) (* (- (/ 67.0 38.0)) (f0 x)) (* (- (/ 98.0 68.0)) (f0 x)) (* (- (/ 16.0 92.0)) (f1 x)) (* (/ 96.0 55.0) (f1 x)) (* (/ 82.0 5.0) (f0 x)) (* (/ 65.0 86.0) (f0 x)) (* (/ 13.0 8.0) (f0 x))) (+ (* (/ 60.0 95.0) l1) (* (- (/ 66.0 61.0)) l0) (* (- (/ 35.0 24.0)) l0) (* (- (/ 98.0 36.0)) l1) (* (- (/ 69.0 12.0)) l0) (* (/ 71.0 46.0) l1) (* (- (/ 53.0 70.0)) l0) (* (/ 45.0 24.0) l1) (* (- (/ 100.0 80.0)) l0) (* (/ 16.0 13.0) l0) (* (- (/ 33.0 33.0)) l1) (* (/ 44.0 81.0) l1) (* (- (/ 91.0 4.0)) l1) (* (- 80.0) l0) (* (- 89.0) l1) (* (- (/ 18.0 40.0)) l0) (* (- (/ 23.0 48.0)) l0) (* (- (/ 6.0 9.0)) l1) (* (- (/ 35.0 34.0)) l0) (* (/ 51.0 49.0) l0) (* (- (/ 24.0 82.0)) l0) (* (/ 50.0 68.0) l1) (* (/ 73.0 67.0) l0) (* (/ 61.0 38.0) l1) (* (/ 98.0 70.0) l1) (* (- (/ 67.0 38.0)) l0) (* (- (/ 98.0 68.0)) l0) (* (- (/ 16.0 92.0)) l1) (* (/ 96.0 55.0) l1) (* (/ 82.0 5.0) l0) (* (/ 65.0 86.0) l0) (* (/ 13.0 8.0) l0))) (- (- (+ (* (/ 60.0 95.0) (f1 x)) (* (- (/ 66.0 61.0)) (f0 x)) (* (- (/ 35.0 24.0)) (f0 x)) (* (- (/ 98.0 36.0)) (f1 x)) (* (- (/ 69.0 12.0)) (f0 x)) (* (/ 71.0 46.0) (f1 x)) (* (- (/ 53.0 70.0)) (f0 x)) (* (/ 45.0 24.0) (f1 x)) (* (- (/ 100.0 80.0)) (f0 x)) (* (/ 16.0 13.0) (f0 x)) (* (- (/ 33.0 33.0)) (f1 x)) (* (/ 44.0 81.0) (f1 x)) (* (- (/ 91.0 4.0)) (f1 x)) (* (- 80.0) (f0 x)) (* (- 89.0) (f1 x)) (* (- (/ 18.0 40.0)) (f0 x)) (* (- (/ 23.0 48.0)) (f0 x)) (* (- (/ 6.0 9.0)) (f1 x)) (* (- (/ 35.0 34.0)) (f0 x)) (* (/ 51.0 49.0) (f0 x)) (* (- (/ 24.0 82.0)) (f0 x)) (* (/ 50.0 68.0) (f1 x)) (* (/ 73.0 67.0) (f0 x)) (* (/ 61.0 38.0) (f1 x)) (* (/ 98.0 70.0) (f1 x)) (* (- (/ 67.0 38.0)) (f0 x)) (* (- (/ 98.0 68.0)) (f0 x)) (* (- (/ 16.0 92.0)) (f1 x)) (* (/ 96.0 55.0) (f1 x)) (* (/ 82.0 5.0) (f0 x)) (* (/ 65.0 86.0) (f0 x)) (* (/ 13.0 8.0) (f0 x))) (+ (* (/ 60.0 95.0) l1) (* (- (/ 66.0 61.0)) l0) (* (- (/ 35.0 24.0)) l0) (* (- (/ 98.0 36.0)) l1) (* (- (/ 69.0 12.0)) l0) (* (/ 71.0 46.0) l1) (* (- (/ 53.0 70.0)) l0) (* (/ 45.0 24.0) l1) (* (- (/ 100.0 80.0)) l0) (* (/ 16.0 13.0) l0) (* (- (/ 33.0 33.0)) l1) (* (/ 44.0 81.0) l1) (* (- (/ 91.0 4.0)) l1) (* (- 80.0) l0) (* (- 89.0) l1) (* (- (/ 18.0 40.0)) l0) (* (- (/ 23.0 48.0)) l0) (* (- (/ 6.0 9.0)) l1) (* (- (/ 35.0 34.0)) l0) (* (/ 51.0 49.0) l0) (* (- (/ 24.0 82.0)) l0) (* (/ 50.0 68.0) l1) (* (/ 73.0 67.0) l0) (* (/ 61.0 38.0) l1) (* (/ 98.0 70.0) l1) (* (- (/ 67.0 38.0)) l0) (* (- (/ 98.0 68.0)) l0) (* (- (/ 16.0 92.0)) l1) (* (/ 96.0 55.0) l1) (* (/ 82.0 5.0) l0) (* (/ 65.0 86.0) l0) (* (/ 13.0 8.0) l0))))) epsilon)
                 ))
               ))
             ))))

(check-sat)

